80
2
27 80 4 78 49 8 66 69 71 13 4 99 45 36 15 10 11 92 6 34 15 8 83 26 2 82 87 5 
100 55 7 33 80 91 11 87 3 62 3 98 62 2 78 36 83 63 94 31 85 6 90 54 88 7 6 1 
2 2 2 2 2 1 1 1 2 1 1 1 1 1 1 2 1 1 1 1 1 1 1 2 1 1 2 1 